benchmark_instances/dzn_benchmark_instances/benchmark_instance_5-4.dzn
% Input: sequence of points
seq_points = [|1,1
              |4,1
              |4,2
              |3,3
              |1,4
              |3,4
              |5,0
              |5,2
              |5,3
              |5,5
              |0,5
              |0,0
             |];

num_points = 12;
