benchmark_instances/lp_benchmark_instances/benchmark_instance_5-4.lp
% Input: sequence of points
point(1,1).
point(4,1).
point(4,2).
point(3,3).
point(1,4).
point(3,4).
point(5,0).
point(5,2).
point(5,3).
point(5,5).
point(0,5).
point(0,0).
